(set-info :smt-lib-version 2.6)
(set-logic UF)
(set-info :source |Benchmarks from the paper: "Extending Sledgehammer with SMT Solvers" by Jasmin Blanchette, Sascha Bohme, and Lawrence C. Paulson, CADE 2011.  Translated to SMT2 by Andrew Reynolds and Morgan Deters.|)
(set-info :category "industrial")
(set-info :status unknown)
(declare-sort S1 0)
(declare-sort S2 0)
(declare-sort S3 0)
(declare-sort S4 0)
(declare-sort S5 0)
(declare-sort S6 0)
(declare-sort S7 0)
(declare-sort S8 0)
(declare-sort S9 0)
(declare-sort S10 0)
(declare-fun f1 () S1)
(declare-fun f2 () S1)
(declare-fun f3 (S2 S3) S3)
(declare-fun f4 (S4 S3) S2)
(declare-fun f5 () S4)
(declare-fun f6 (S5 S6) S3)
(declare-fun f7 (S7 S3) S5)
(declare-fun f8 () S7)
(declare-fun f9 () S3)
(declare-fun f10 (S8 S3) S6)
(declare-fun f11 () S8)
(declare-fun f12 () S2)
(declare-fun f13 () S2)
(declare-fun f14 () S3)
(declare-fun f15 () S3)
(declare-fun f16 () S4)
(declare-fun f17 () S3)
(declare-fun f18 () S5)
(declare-fun f19 () S6)
(declare-fun f20 () S4)
(declare-fun f21 () S2)
(declare-fun f22 () S3)
(declare-fun f23 () S3)
(declare-fun f24 () S3)
(declare-fun f25 () S3)
(declare-fun f26 () S3)
(declare-fun f27 (S3) S1)
(declare-fun f28 (S3) S1)
(declare-fun f29 () S6)
(declare-fun f30 (S3 S3) S1)
(declare-fun f31 (S9 S6) S6)
(declare-fun f32 (S10 S6) S9)
(declare-fun f33 () S10)
(declare-fun f34 () S10)
(declare-fun f35 () S10)
(declare-fun f36 () S3)
(declare-fun f37 () S3)
(declare-fun f38 (S6 S6) S1)
(declare-fun f39 () S3)
(assert (not (= f1 f2)))
(assert (let ((?v_1 (f3 f12 (f3 f13 f14)))) (let ((?v_0 (f10 f11 ?v_1)) (?v_3 (f4 f16 (f3 (f4 f5 f17) (f6 f18 f19)))) (?v_2 (f4 f16 (f3 f21 ?v_1)))) (not (= (f3 (f4 f5 (f6 (f7 f8 f9) ?v_0)) (f6 (f7 f8 f15) ?v_0)) (f3 ?v_3 (f3 (f4 f5 (f3 (f4 f20 (f3 (f4 f20 (f3 (f4 f5 (f3 (f4 f16 (f3 f21 (f3 f12 ?v_1))) f22)) f17)) (f3 (f4 f16 (f3 ?v_2 f23)) f24))) (f3 (f4 f16 (f3 ?v_2 f25)) f26))) (f3 ?v_3 (f3 (f4 f5 (f6 (f7 f8 f24) ?v_0)) (f6 (f7 f8 f26) ?v_0))))))))))
(assert (let ((?v_1 (f3 f12 (f3 f13 f14)))) (let ((?v_0 (f10 f11 ?v_1)) (?v_4 (f3 (f4 f5 f17) (f6 f18 f19)))) (let ((?v_2 (f4 f16 ?v_4)) (?v_3 (f4 f16 (f3 f21 ?v_1))) (?v_5 (f4 f16 (f6 (f7 f8 ?v_4) ?v_0)))) (= (f3 (f4 f5 (f6 (f7 f8 f9) ?v_0)) (f6 (f7 f8 f15) ?v_0)) (f3 (f4 f5 (f3 (f4 f5 (f3 (f4 f20 (f3 (f4 f20 (f3 ?v_2 (f3 (f4 f5 (f3 (f4 f16 (f3 f21 (f3 f12 ?v_1))) f22)) f17))) (f3 ?v_2 (f3 (f4 f16 (f3 ?v_3 f23)) f24)))) (f3 ?v_2 (f3 (f4 f16 (f3 ?v_3 f25)) f26)))) (f3 ?v_5 (f6 (f7 f8 f24) ?v_0)))) (f3 ?v_5 (f6 (f7 f8 f26) ?v_0))))))))
(assert (let ((?v_1 (f3 f12 (f3 f13 f14)))) (let ((?v_0 (f10 f11 ?v_1))) (= (f3 (f4 f5 (f6 (f7 f8 f23) ?v_0)) (f6 (f7 f8 f25) ?v_0)) (f3 (f4 f16 (f3 (f4 f5 (f3 (f4 f16 (f3 f21 (f3 f12 ?v_1))) f22)) f17)) (f3 (f4 f5 f17) (f6 f18 f19)))))))
(assert (let ((?v_1 (f3 f12 (f3 f13 f14)))) (let ((?v_0 (f10 f11 ?v_1)) (?v_4 (f3 (f4 f5 f17) (f6 f18 f19)))) (let ((?v_2 (f4 f16 ?v_4)) (?v_3 (f4 f16 (f3 f21 ?v_1))) (?v_5 (f4 f16 (f6 (f7 f8 ?v_4) ?v_0)))) (= (f3 (f4 f5 (f6 (f7 f8 f9) ?v_0)) (f6 (f7 f8 f15) ?v_0)) (f3 (f4 f5 (f3 (f4 f5 (f3 (f4 f20 (f3 (f4 f20 (f3 ?v_2 (f3 (f4 f5 (f3 (f4 f16 (f3 f21 (f3 f12 ?v_1))) f22)) f17))) (f3 ?v_2 (f3 (f4 f16 (f3 ?v_3 f23)) f24)))) (f3 ?v_2 (f3 (f4 f16 (f3 ?v_3 f25)) f26)))) (f3 ?v_5 (f6 (f7 f8 f24) ?v_0)))) (f3 ?v_5 (f6 (f7 f8 f26) ?v_0))))))))
(assert (let ((?v_2 (f3 f12 (f3 f13 f14)))) (let ((?v_1 (f10 f11 ?v_2)) (?v_0 (f3 (f4 f5 f17) (f6 f18 f19))) (?v_4 (f4 f16 (f3 f21 ?v_2)))) (let ((?v_3 (f3 (f4 f16 f24) ?v_0)) (?v_5 (f3 (f4 f16 f26) ?v_0))) (= (f3 (f4 f5 (f6 (f7 f8 (f3 (f4 f20 f23) ?v_3)) ?v_1)) (f6 (f7 f8 (f3 (f4 f20 f25) ?v_5)) ?v_1)) (f3 (f4 f5 (f3 (f4 f5 (f3 (f4 f20 (f3 (f4 f20 (f3 (f4 f5 (f6 (f7 f8 f23) ?v_1)) (f6 (f7 f8 f25) ?v_1))) (f3 (f4 f16 (f3 ?v_4 f23)) ?v_3))) (f3 (f4 f16 (f3 ?v_4 f25)) ?v_5))) (f6 (f7 f8 ?v_3) ?v_1))) (f6 (f7 f8 ?v_5) ?v_1)))))))
(assert (let ((?v_1 (f3 f12 (f3 f13 f14)))) (let ((?v_0 (f10 f11 ?v_1)) (?v_3 (f3 (f4 f5 f17) (f6 f18 f19)))) (let ((?v_6 (f4 f16 ?v_3)) (?v_2 (f4 f16 (f3 f21 ?v_1)))) (let ((?v_7 (f4 f16 (f3 ?v_2 f23))) (?v_8 (f4 f16 (f3 ?v_2 f25))) (?v_9 (f4 f16 (f6 (f7 f8 ?v_3) ?v_0))) (?v_4 (f3 (f4 f16 f24) ?v_3)) (?v_5 (f3 (f4 f16 f26) ?v_3))) (= (f3 (f4 f5 (f3 (f4 f5 (f3 (f4 f20 (f3 (f4 f20 (f3 (f4 f5 (f6 (f7 f8 f23) ?v_0)) (f6 (f7 f8 f25) ?v_0))) (f3 ?v_7 ?v_4))) (f3 ?v_8 ?v_5))) (f6 (f7 f8 ?v_4) ?v_0))) (f6 (f7 f8 ?v_5) ?v_0)) (f3 (f4 f5 (f3 (f4 f5 (f3 (f4 f20 (f3 (f4 f20 (f3 ?v_6 (f3 (f4 f5 (f3 (f4 f16 (f3 f21 (f3 f12 ?v_1))) f22)) f17))) (f3 ?v_6 (f3 ?v_7 f24)))) (f3 ?v_6 (f3 ?v_8 f26)))) (f3 ?v_9 (f6 (f7 f8 f24) ?v_0)))) (f3 ?v_9 (f6 (f7 f8 f26) ?v_0)))))))))
(assert (let ((?v_0 (f10 f11 (f3 f12 (f3 f13 f14)))) (?v_1 (f3 (f4 f5 f17) (f6 f18 f19)))) (= (f3 (f4 f5 (f6 (f7 f8 f9) ?v_0)) (f6 (f7 f8 f15) ?v_0)) (f3 (f4 f5 (f6 (f7 f8 (f3 (f4 f20 f23) (f3 (f4 f16 f24) ?v_1))) ?v_0)) (f6 (f7 f8 (f3 (f4 f20 f25) (f3 (f4 f16 f26) ?v_1))) ?v_0)))))
(assert (=> (forall ((?v0 S3) (?v1 S3)) (let ((?v_1 (f3 f12 (f3 f13 f14)))) (let ((?v_0 (f10 f11 ?v_1))) (=> (= (f3 (f4 f5 (f6 (f7 f8 ?v0) ?v_0)) (f6 (f7 f8 ?v1) ?v_0)) (f3 (f4 f16 (f3 (f4 f5 (f3 (f4 f16 (f3 f21 (f3 f12 ?v_1))) f22)) f17)) (f3 (f4 f5 f17) (f6 f18 f19)))) false)))) false))
(assert (= (f27 (f3 (f4 f5 (f3 (f4 f16 (f3 f21 (f3 f12 (f3 f12 (f3 f13 f14))))) f22)) f17)) f1))
(assert (not (= (f28 (f3 (f4 f16 (f3 (f4 f5 (f3 (f4 f16 (f3 f21 (f3 f12 (f3 f12 (f3 f13 f14))))) f22)) f17)) (f3 (f4 f5 f17) (f6 f18 f29)))) f1)))
(assert (let ((?v_1 (f3 (f4 f5 f17) (f6 f18 f19))) (?v_0 (f3 (f4 f5 (f3 (f4 f16 (f3 f21 (f3 f12 (f3 f12 (f3 f13 f14))))) f22)) f17))) (not (=> (= (f30 ?v_1 ?v_0) f1) (not (= (f28 (f3 (f4 f16 ?v_0) ?v_1)) f1))))))
(assert (forall ((?v0 S3) (?v1 S3)) (let ((?v_1 (f3 f12 (f3 f13 f14)))) (let ((?v_0 (f10 f11 ?v_1))) (= (f6 (f7 f8 (f3 (f4 f20 ?v0) ?v1)) ?v_0) (f3 (f4 f5 (f3 (f4 f20 (f6 (f7 f8 ?v0) ?v_0)) (f3 (f4 f16 (f3 (f4 f16 (f3 f21 ?v_1)) ?v0)) ?v1))) (f6 (f7 f8 ?v1) ?v_0)))))))
(assert (forall ((?v0 S3) (?v1 S3)) (let ((?v_3 (f3 f13 f14))) (let ((?v_5 (f10 f11 (f3 f12 ?v_3))) (?v_1 (f3 f13 ?v_3))) (let ((?v_0 (f10 f11 ?v_1)) (?v_2 (f7 f8 ?v0)) (?v_4 (f4 f16 (f3 f21 ?v_1))) (?v_6 (f7 f8 ?v1))) (= (f6 (f7 f8 (f3 (f4 f20 ?v0) ?v1)) ?v_0) (f3 (f4 f20 (f3 (f4 f5 (f3 (f4 f20 (f6 ?v_2 ?v_0)) (f3 (f4 f16 (f3 ?v_4 (f6 ?v_2 ?v_5))) ?v1))) (f3 (f4 f16 (f3 ?v_4 ?v0)) (f6 ?v_6 ?v_5)))) (f6 ?v_6 ?v_0))))))))
(assert (forall ((?v0 S3) (?v1 S3)) (let ((?v_1 (f3 f12 (f3 f13 f14)))) (let ((?v_0 (f10 f11 ?v_1))) (= (f6 (f7 f8 (f3 (f4 f20 ?v0) ?v1)) ?v_0) (f3 (f4 f20 (f3 (f4 f5 (f6 (f7 f8 ?v0) ?v_0)) (f6 (f7 f8 ?v1) ?v_0))) (f3 (f4 f16 (f3 (f4 f16 (f3 f21 ?v_1)) ?v0)) ?v1)))))))
(assert (forall ((?v0 S3) (?v1 S3)) (let ((?v_0 (f10 f11 (f3 f12 (f3 f13 f14))))) (= (f3 (f4 f16 (f3 (f4 f5 ?v0) ?v1)) (f3 (f4 f20 ?v0) ?v1)) (f3 (f4 f20 (f6 (f7 f8 ?v0) ?v_0)) (f6 (f7 f8 ?v1) ?v_0))))))
(assert (forall ((?v0 S3) (?v1 S3)) (let ((?v_1 (f3 f12 (f3 f13 f14)))) (let ((?v_0 (f10 f11 ?v_1))) (= (f6 (f7 f8 (f3 (f4 f5 ?v0) ?v1)) ?v_0) (f3 (f4 f5 (f3 (f4 f5 (f6 (f7 f8 ?v0) ?v_0)) (f3 (f4 f16 (f3 (f4 f16 (f3 f21 ?v_1)) ?v0)) ?v1))) (f6 (f7 f8 ?v1) ?v_0)))))))
(assert (forall ((?v0 S3) (?v1 S3)) (let ((?v_3 (f3 f13 f14))) (let ((?v_5 (f10 f11 (f3 f12 ?v_3))) (?v_1 (f3 f13 ?v_3))) (let ((?v_0 (f10 f11 ?v_1)) (?v_4 (f4 f16 (f3 f21 ?v_1))) (?v_2 (f7 f8 ?v0)) (?v_6 (f7 f8 ?v1))) (= (f6 (f7 f8 (f3 (f4 f5 ?v0) ?v1)) ?v_0) (f3 (f4 f5 (f3 (f4 f5 (f3 (f4 f5 (f6 ?v_2 ?v_0)) (f3 (f4 f16 (f3 ?v_4 (f6 ?v_2 ?v_5))) ?v1))) (f3 (f4 f16 (f3 ?v_4 ?v0)) (f6 ?v_6 ?v_5)))) (f6 ?v_6 ?v_0))))))))
(assert (forall ((?v0 S3) (?v1 S3)) (let ((?v_1 (f3 f12 (f3 f13 f14)))) (let ((?v_0 (f10 f11 ?v_1))) (= (f6 (f7 f8 (f3 (f4 f5 ?v0) ?v1)) ?v_0) (f3 (f4 f5 (f3 (f4 f5 (f6 (f7 f8 ?v0) ?v_0)) (f6 (f7 f8 ?v1) ?v_0))) (f3 (f4 f16 (f3 (f4 f16 (f3 f21 ?v_1)) ?v0)) ?v1)))))))
(assert (forall ((?v0 S6) (?v1 S6)) (let ((?v_0 (f10 f11 (f3 f12 (f3 f13 f14))))) (= (f31 (f32 f33 (f31 (f32 f34 ?v0) ?v1)) ?v_0) (f31 (f32 f34 (f31 (f32 f34 (f31 (f32 f33 ?v0) ?v_0)) (f31 (f32 f33 ?v1) ?v_0))) (f31 (f32 f35 (f31 (f32 f35 ?v_0) ?v0)) ?v1))))))
(assert (forall ((?v0 S3)) (let ((?v_0 (f10 f11 ?v0))) (= (f31 (f32 f33 ?v_0) (f10 f11 (f3 f12 (f3 f13 f14)))) (f31 (f32 f35 ?v_0) ?v_0)))))
(assert (forall ((?v0 S3)) (let ((?v_0 (f3 f21 ?v0))) (= (f6 (f7 f8 ?v_0) (f10 f11 (f3 f12 (f3 f13 f14)))) (f3 (f4 f16 ?v_0) ?v_0)))))
(assert (let ((?v_0 (f3 f12 (f3 f13 f14)))) (= (f3 (f4 f5 (f6 (f7 f8 f36) (f10 f11 ?v_0))) f17) (f3 (f4 f16 (f3 (f4 f5 (f3 (f4 f16 (f3 f21 (f3 f12 ?v_0))) f22)) f17)) f37))))
(assert (forall ((?v0 S3)) (let ((?v_1 (f3 f13 f14)) (?v_0 (f7 f8 ?v0))) (= (f3 (f4 f16 ?v0) (f6 ?v_0 (f10 f11 (f3 f12 ?v_1)))) (f6 ?v_0 (f10 f11 (f3 f13 ?v_1)))))))
(assert (= (f30 f17 f37) f1))
(assert (= (f38 f29 f19) f1))
(assert (= (f30 f37 (f3 (f4 f5 (f3 (f4 f16 (f3 f21 (f3 f12 (f3 f12 (f3 f13 f14))))) f22)) f17)) f1))
(assert (= (f28 (f3 (f4 f16 (f3 (f4 f5 (f3 (f4 f16 (f3 f21 (f3 f12 (f3 f12 (f3 f13 f14))))) f22)) f17)) f37)) f1))
(assert (let ((?v_1 (f3 (f4 f5 f17) (f6 f18 f19))) (?v_0 (f3 (f4 f5 (f3 (f4 f16 (f3 f21 (f3 f12 (f3 f12 (f3 f13 f14))))) f22)) f17))) (and (= (f30 ?v_1 ?v_0) f1) (= (f28 (f3 (f4 f16 ?v_0) ?v_1)) f1))))
(assert (=> (forall ((?v0 S3)) (let ((?v_0 (f3 f12 (f3 f13 f14)))) (=> (= (f3 (f4 f5 (f6 (f7 f8 f36) (f10 f11 ?v_0))) f17) (f3 (f4 f16 (f3 (f4 f5 (f3 (f4 f16 (f3 f21 (f3 f12 ?v_0))) f22)) f17)) ?v0)) false))) false))
(assert (=> (= f37 f17) (exists ((?v0 S3) (?v1 S3)) (let ((?v_1 (f3 f12 (f3 f13 f14)))) (let ((?v_0 (f10 f11 ?v_1))) (= (f3 (f4 f5 (f6 (f7 f8 ?v0) ?v_0)) (f6 (f7 f8 ?v1) ?v_0)) (f3 (f4 f5 (f3 (f4 f16 (f3 f21 (f3 f12 ?v_1))) f22)) f17)))))))
(assert (forall ((?v0 S3) (?v1 S3)) (= (= (f30 f39 (f3 (f4 f5 (f3 (f4 f16 ?v0) ?v0)) (f3 (f4 f16 ?v1) ?v1))) f1) (or (not (= ?v0 f39)) (not (= ?v1 f39))))))
(assert (forall ((?v0 S3) (?v1 S3)) (not (= (f30 (f3 (f4 f5 (f3 (f4 f16 ?v0) ?v0)) (f3 (f4 f16 ?v1) ?v1)) f39) f1))))
(assert (forall ((?v0 S3) (?v1 S3) (?v2 S6)) (= (f31 (f32 f35 (f10 f11 ?v0)) (f31 (f32 f35 (f10 f11 ?v1)) ?v2)) (ite (= (f30 ?v0 f14) f1) f29 (f31 (f32 f35 (f10 f11 (f3 (f4 f16 ?v0) ?v1))) ?v2)))))
(assert (forall ((?v0 S3) (?v1 S3)) (= (f31 (f32 f35 (f10 f11 ?v0)) (f10 f11 ?v1)) (ite (= (f30 ?v0 f14) f1) f29 (f10 f11 (f3 (f4 f16 ?v0) ?v1))))))
(assert (forall ((?v0 S3) (?v1 S3)) (let ((?v_1 (f10 f11 ?v0)) (?v_0 (f10 f11 ?v1))) (= (f31 (f32 f34 ?v_1) ?v_0) (ite (= (f30 ?v0 f14) f1) ?v_0 (ite (= (f30 ?v1 f14) f1) ?v_1 (f10 f11 (f3 (f4 f5 ?v0) ?v1))))))))
(assert (forall ((?v0 S3) (?v1 S3)) (= (= (f3 (f4 f5 (f3 (f4 f16 ?v0) ?v0)) (f3 (f4 f16 ?v1) ?v1)) f39) (and (= ?v0 f39) (= ?v1 f39)))))
(check-sat)
(exit)
